(declare-const a_1_1 Int )
(assert (> a_1_1 0))
(assert (< a_1_1 10))
(declare-const a_1_2 Int )
(assert (> a_1_2 0))
(assert (< a_1_2 10))
(declare-const a_1_3 Int )
(assert (> a_1_3 0))
(assert (< a_1_3 10))
(declare-const a_1_4 Int )
(assert (> a_1_4 0))
(assert (< a_1_4 10))
(declare-const a_1_5 Int )
(assert (> a_1_5 0))
(assert (< a_1_5 10))
(declare-const a_1_6 Int )
(assert (> a_1_6 0))
(assert (< a_1_6 10))
(declare-const a_1_7 Int )
(assert (> a_1_7 0))
(assert (< a_1_7 10))
(declare-const a_1_8 Int )
(assert (> a_1_8 0))
(assert (< a_1_8 10))
(declare-const a_1_9 Int )
(assert (> a_1_9 0))
(assert (< a_1_9 10))
(declare-const a_2_1 Int )
(assert (> a_2_1 0))
(assert (< a_2_1 10))
(declare-const a_2_2 Int )
(assert (> a_2_2 0))
(assert (< a_2_2 10))
(declare-const a_2_3 Int )
(assert (> a_2_3 0))
(assert (< a_2_3 10))
(declare-const a_2_4 Int )
(assert (> a_2_4 0))
(assert (< a_2_4 10))
(declare-const a_2_5 Int )
(assert (> a_2_5 0))
(assert (< a_2_5 10))
(declare-const a_2_6 Int )
(assert (> a_2_6 0))
(assert (< a_2_6 10))
(declare-const a_2_7 Int )
(assert (> a_2_7 0))
(assert (< a_2_7 10))
(declare-const a_2_8 Int )
(assert (> a_2_8 0))
(assert (< a_2_8 10))
(declare-const a_2_9 Int )
(assert (> a_2_9 0))
(assert (< a_2_9 10))
(declare-const a_3_1 Int )
(assert (> a_3_1 0))
(assert (< a_3_1 10))
(declare-const a_3_2 Int )
(assert (> a_3_2 0))
(assert (< a_3_2 10))
(declare-const a_3_3 Int )
(assert (> a_3_3 0))
(assert (< a_3_3 10))
(declare-const a_3_4 Int )
(assert (> a_3_4 0))
(assert (< a_3_4 10))
(declare-const a_3_5 Int )
(assert (> a_3_5 0))
(assert (< a_3_5 10))
(declare-const a_3_6 Int )
(assert (> a_3_6 0))
(assert (< a_3_6 10))
(declare-const a_3_7 Int )
(assert (> a_3_7 0))
(assert (< a_3_7 10))
(declare-const a_3_8 Int )
(assert (> a_3_8 0))
(assert (< a_3_8 10))
(declare-const a_3_9 Int )
(assert (> a_3_9 0))
(assert (< a_3_9 10))
(declare-const a_4_1 Int )
(assert (> a_4_1 0))
(assert (< a_4_1 10))
(declare-const a_4_2 Int )
(assert (> a_4_2 0))
(assert (< a_4_2 10))
(declare-const a_4_3 Int )
(assert (> a_4_3 0))
(assert (< a_4_3 10))
(declare-const a_4_4 Int )
(assert (> a_4_4 0))
(assert (< a_4_4 10))
(declare-const a_4_5 Int )
(assert (> a_4_5 0))
(assert (< a_4_5 10))
(declare-const a_4_6 Int )
(assert (> a_4_6 0))
(assert (< a_4_6 10))
(declare-const a_4_7 Int )
(assert (> a_4_7 0))
(assert (< a_4_7 10))
(declare-const a_4_8 Int )
(assert (> a_4_8 0))
(assert (< a_4_8 10))
(declare-const a_4_9 Int )
(assert (> a_4_9 0))
(assert (< a_4_9 10))
(declare-const a_5_1 Int )
(assert (> a_5_1 0))
(assert (< a_5_1 10))
(declare-const a_5_2 Int )
(assert (> a_5_2 0))
(assert (< a_5_2 10))
(declare-const a_5_3 Int )
(assert (> a_5_3 0))
(assert (< a_5_3 10))
(declare-const a_5_4 Int )
(assert (> a_5_4 0))
(assert (< a_5_4 10))
(declare-const a_5_5 Int )
(assert (> a_5_5 0))
(assert (< a_5_5 10))
(declare-const a_5_6 Int )
(assert (> a_5_6 0))
(assert (< a_5_6 10))
(declare-const a_5_7 Int )
(assert (> a_5_7 0))
(assert (< a_5_7 10))
(declare-const a_5_8 Int )
(assert (> a_5_8 0))
(assert (< a_5_8 10))
(declare-const a_5_9 Int )
(assert (> a_5_9 0))
(assert (< a_5_9 10))
(declare-const a_6_1 Int )
(assert (> a_6_1 0))
(assert (< a_6_1 10))
(declare-const a_6_2 Int )
(assert (> a_6_2 0))
(assert (< a_6_2 10))
(declare-const a_6_3 Int )
(assert (> a_6_3 0))
(assert (< a_6_3 10))
(declare-const a_6_4 Int )
(assert (> a_6_4 0))
(assert (< a_6_4 10))
(declare-const a_6_5 Int )
(assert (> a_6_5 0))
(assert (< a_6_5 10))
(declare-const a_6_6 Int )
(assert (> a_6_6 0))
(assert (< a_6_6 10))
(declare-const a_6_7 Int )
(assert (> a_6_7 0))
(assert (< a_6_7 10))
(declare-const a_6_8 Int )
(assert (> a_6_8 0))
(assert (< a_6_8 10))
(declare-const a_6_9 Int )
(assert (> a_6_9 0))
(assert (< a_6_9 10))
(declare-const a_7_1 Int )
(assert (> a_7_1 0))
(assert (< a_7_1 10))
(declare-const a_7_2 Int )
(assert (> a_7_2 0))
(assert (< a_7_2 10))
(declare-const a_7_3 Int )
(assert (> a_7_3 0))
(assert (< a_7_3 10))
(declare-const a_7_4 Int )
(assert (> a_7_4 0))
(assert (< a_7_4 10))
(declare-const a_7_5 Int )
(assert (> a_7_5 0))
(assert (< a_7_5 10))
(declare-const a_7_6 Int )
(assert (> a_7_6 0))
(assert (< a_7_6 10))
(declare-const a_7_7 Int )
(assert (> a_7_7 0))
(assert (< a_7_7 10))
(declare-const a_7_8 Int )
(assert (> a_7_8 0))
(assert (< a_7_8 10))
(declare-const a_7_9 Int )
(assert (> a_7_9 0))
(assert (< a_7_9 10))
(declare-const a_8_1 Int )
(assert (> a_8_1 0))
(assert (< a_8_1 10))
(declare-const a_8_2 Int )
(assert (> a_8_2 0))
(assert (< a_8_2 10))
(declare-const a_8_3 Int )
(assert (> a_8_3 0))
(assert (< a_8_3 10))
(declare-const a_8_4 Int )
(assert (> a_8_4 0))
(assert (< a_8_4 10))
(declare-const a_8_5 Int )
(assert (> a_8_5 0))
(assert (< a_8_5 10))
(declare-const a_8_6 Int )
(assert (> a_8_6 0))
(assert (< a_8_6 10))
(declare-const a_8_7 Int )
(assert (> a_8_7 0))
(assert (< a_8_7 10))
(declare-const a_8_8 Int )
(assert (> a_8_8 0))
(assert (< a_8_8 10))
(declare-const a_8_9 Int )
(assert (> a_8_9 0))
(assert (< a_8_9 10))
(declare-const a_9_1 Int )
(assert (> a_9_1 0))
(assert (< a_9_1 10))
(declare-const a_9_2 Int )
(assert (> a_9_2 0))
(assert (< a_9_2 10))
(declare-const a_9_3 Int )
(assert (> a_9_3 0))
(assert (< a_9_3 10))
(declare-const a_9_4 Int )
(assert (> a_9_4 0))
(assert (< a_9_4 10))
(declare-const a_9_5 Int )
(assert (> a_9_5 0))
(assert (< a_9_5 10))
(declare-const a_9_6 Int )
(assert (> a_9_6 0))
(assert (< a_9_6 10))
(declare-const a_9_7 Int )
(assert (> a_9_7 0))
(assert (< a_9_7 10))
(declare-const a_9_8 Int )
(assert (> a_9_8 0))
(assert (< a_9_8 10))
(declare-const a_9_9 Int )
(assert (> a_9_9 0))
(assert (< a_9_9 10))
(define-fun sudoku_line ((a1 Int) 
(a2 Int) 
(a3 Int) 
(a4 Int) 
(a5 Int) 
(a6 Int) 
(a7 Int) 
(a8 Int) 
(a9 Int) 
) Bool 
(and (not (= a1 a2)) 
(and (not (= a1 a3)) 
(and (not (= a1 a4)) 
(and (not (= a1 a5)) 
(and (not (= a1 a6)) 
(and (not (= a1 a7)) 
(and (not (= a1 a8)) 
(and (not (= a1 a9)) 
(and (not (= a2 a3)) 
(and (not (= a2 a4)) 
(and (not (= a2 a5)) 
(and (not (= a2 a6)) 
(and (not (= a2 a7)) 
(and (not (= a2 a8)) 
(and (not (= a2 a9)) 
(and (not (= a3 a4)) 
(and (not (= a3 a5)) 
(and (not (= a3 a6)) 
(and (not (= a3 a7)) 
(and (not (= a3 a8)) 
(and (not (= a3 a9)) 
(and (not (= a4 a5)) 
(and (not (= a4 a6)) 
(and (not (= a4 a7)) 
(and (not (= a4 a8)) 
(and (not (= a4 a9)) 
(and (not (= a5 a6)) 
(and (not (= a5 a7)) 
(and (not (= a5 a8)) 
(and (not (= a5 a9)) 
(and (not (= a6 a7)) 
(and (not (= a6 a8)) 
(and (not (= a6 a9)) 
(and (not (= a7 a8)) 
(and (not (= a7 a9)) 
(and (not (= a8 a9)) 
true
))))))))))))))))))))))))))))))))))))
)
(assert (sudoku_line a_1_1 a_1_2 a_1_3 a_1_4 a_1_5 a_1_6 a_1_7 a_1_8 a_1_9 ))
(assert (sudoku_line a_2_1 a_2_2 a_2_3 a_2_4 a_2_5 a_2_6 a_2_7 a_2_8 a_2_9 ))
(assert (sudoku_line a_3_1 a_3_2 a_3_3 a_3_4 a_3_5 a_3_6 a_3_7 a_3_8 a_3_9 ))
(assert (sudoku_line a_4_1 a_4_2 a_4_3 a_4_4 a_4_5 a_4_6 a_4_7 a_4_8 a_4_9 ))
(assert (sudoku_line a_5_1 a_5_2 a_5_3 a_5_4 a_5_5 a_5_6 a_5_7 a_5_8 a_5_9 ))
(assert (sudoku_line a_6_1 a_6_2 a_6_3 a_6_4 a_6_5 a_6_6 a_6_7 a_6_8 a_6_9 ))
(assert (sudoku_line a_7_1 a_7_2 a_7_3 a_7_4 a_7_5 a_7_6 a_7_7 a_7_8 a_7_9 ))
(assert (sudoku_line a_8_1 a_8_2 a_8_3 a_8_4 a_8_5 a_8_6 a_8_7 a_8_8 a_8_9 ))
(assert (sudoku_line a_9_1 a_9_2 a_9_3 a_9_4 a_9_5 a_9_6 a_9_7 a_9_8 a_9_9 ))

(assert (sudoku_line a_1_1 a_2_1 a_3_1 a_4_1 a_5_1 a_6_1 a_7_1 a_8_1 a_9_1 ))
(assert (sudoku_line a_1_2 a_2_2 a_3_2 a_4_2 a_5_2 a_6_2 a_7_2 a_8_2 a_9_2 ))
(assert (sudoku_line a_1_3 a_2_3 a_3_3 a_4_3 a_5_3 a_6_3 a_7_3 a_8_3 a_9_3 ))
(assert (sudoku_line a_1_4 a_2_4 a_3_4 a_4_4 a_5_4 a_6_4 a_7_4 a_8_4 a_9_4 ))
(assert (sudoku_line a_1_5 a_2_5 a_3_5 a_4_5 a_5_5 a_6_5 a_7_5 a_8_5 a_9_5 ))
(assert (sudoku_line a_1_6 a_2_6 a_3_6 a_4_6 a_5_6 a_6_6 a_7_6 a_8_6 a_9_6 ))
(assert (sudoku_line a_1_7 a_2_7 a_3_7 a_4_7 a_5_7 a_6_7 a_7_7 a_8_7 a_9_7 ))
(assert (sudoku_line a_1_8 a_2_8 a_3_8 a_4_8 a_5_8 a_6_8 a_7_8 a_8_8 a_9_8 ))
(assert (sudoku_line a_1_9 a_2_9 a_3_9 a_4_9 a_5_9 a_6_9 a_7_9 a_8_9 a_9_9 ))

(assert (sudoku_line a_1_1 a_1_2 a_1_3 a_2_1 a_2_2 a_2_3 a_3_1 a_3_2 a_3_3 ))
(assert (sudoku_line a_1_4 a_1_5 a_1_6 a_2_4 a_2_5 a_2_6 a_3_4 a_3_5 a_3_6 ))
(assert (sudoku_line a_1_7 a_1_8 a_1_9 a_2_7 a_2_8 a_2_9 a_3_7 a_3_8 a_3_9 ))
(assert (sudoku_line a_4_1 a_4_2 a_4_3 a_5_1 a_5_2 a_5_3 a_6_1 a_6_2 a_6_3 ))
(assert (sudoku_line a_4_4 a_4_5 a_4_6 a_5_4 a_5_5 a_5_6 a_6_4 a_6_5 a_6_6 ))
(assert (sudoku_line a_4_7 a_4_8 a_4_9 a_5_7 a_5_8 a_5_9 a_6_7 a_6_8 a_6_9 ))
(assert (sudoku_line a_7_1 a_7_2 a_7_3 a_8_1 a_8_2 a_8_3 a_9_1 a_9_2 a_9_3 ))
(assert (sudoku_line a_7_4 a_7_5 a_7_6 a_8_4 a_8_5 a_8_6 a_9_4 a_9_5 a_9_6 ))
(assert (sudoku_line a_7_7 a_7_8 a_7_9 a_8_7 a_8_8 a_8_9 a_9_7 a_9_8 a_9_9 ))
